c Random generated cnf formula, satisfiable: true
p cnf 10 50
-1 -3 -10 0
2 -6 5 0
-1 7 4 0
-7 -8 -3 0
1 5 -8 0
-9 -10 3 0
2 -8 -3 0
8 1 7 0
-7 6 9 0
1 -7 -5 0
-3 9 4 0
-3 8 -5 0
-1 -4 -6 0
4 2 -9 0
-9 1 -5 0
6 9 3 0
6 7 4 0
8 10 3 0
-2 -8 -1 0
1 -6 -8 0
-4 5 -1 0
-4 -6 -5 0
-8 -7 -2 0
5 2 7 0
-6 -4 -1 0
2 -10 6 0
-5 3 1 0
-9 2 3 0
-2 6 -7 0
1 -8 3 0
-4 9 -8 0
-6 10 8 0
4 5 -1 0
-9 -8 -10 0
1 -9 4 0
-5 6 10 0
1 -7 -8 0
-6 -3 9 0
5 -6 -1 0
8 3 4 0
-6 -2 3 0
6 5 -9 0
-6 -10 -2 0
-5 6 8 0
-3 4 2 0
-1 7 -4 0
-4 10 -1 0
-4 -1 10 0
7 -4 3 0
-1 -4 -3 0
